pseudo-Boolean proof version 1.0
f 230 0
p 75 57 + 63 + 69 + 0
j 231 1 ~x23 1 x1 1 x2 1 x3 1 x5 1 x6 1 x8 1 x9 >= 1 ;
p 232 23 + 0
p 83 55 + 59 + 61 + 0
j 234 1 ~x27 1 x1 1 x2 1 x4 1 x7 1 x8 1 x9 1 x10 >= 1 ;
p 235 27 + 0
p 152 182 + 188 + 190 + 0
j 237 1 ~x61 1 x81 1 x82 1 x83 1 x84 1 x85 1 x87 1 x88 >= 1 ;
p 238 21 + 0
p 154 180 + 186 + 190 + 0
j 240 1 ~x62 1 x81 1 x82 1 x83 1 x84 1 x86 1 x87 1 x89 >= 1 ;
p 241 22 + 0
p 156 178 + 184 + 190 + 0
j 243 1 ~x63 1 x81 1 x82 1 x83 1 x85 1 x86 1 x88 1 x89 >= 1 ;
p 244 23 + 0
p 158 176 + 186 + 188 + 0
j 246 1 ~x64 1 x81 1 x82 1 x84 1 x85 1 x86 1 x87 1 x90 >= 1 ;
p 247 24 + 0
p 160 174 + 184 + 188 + 0
j 249 1 ~x65 1 x81 1 x83 1 x84 1 x85 1 x86 1 x88 1 x90 >= 1 ;
p 250 25 + 0
p 162 172 + 184 + 186 + 0
j 252 1 ~x66 1 x82 1 x83 1 x84 1 x85 1 x86 1 x89 1 x90 >= 1 ;
p 253 26 + 0
p 164 176 + 180 + 182 + 0
j 255 1 ~x67 1 x81 1 x82 1 x84 1 x87 1 x88 1 x89 1 x90 >= 1 ;
p 256 27 + 0
p 166 174 + 178 + 182 + 0
j 258 1 ~x68 1 x81 1 x83 1 x85 1 x87 1 x88 1 x89 1 x90 >= 1 ;
p 259 28 + 0
p 168 172 + 178 + 180 + 0
j 261 1 ~x69 1 x82 1 x83 1 x86 1 x87 1 x88 1 x89 1 x90 >= 1 ;
p 262 29 + 0
p 170 172 + 174 + 176 + 0
j 264 1 ~x70 1 x84 1 x85 1 x86 1 x87 1 x88 1 x89 1 x90 >= 1 ;
p 265 30 + 0
p 196 217 + 223 + 229 + 0
j 267 1 ~x83 1 x1 1 x2 1 x3 1 x5 1 x6 1 x8 1 x9 >= 1 ;
p 268 23 + 0
p 204 215 + 219 + 221 + 0
j 270 1 ~x87 1 x1 1 x2 1 x4 1 x7 1 x8 1 x9 1 x10 >= 1 ;
p 271 27 + 0
p 212 201 + 207 + 209 + 0
p 214 199 + 205 + 209 + 0
p 216 197 + 203 + 209 + 0
p 218 195 + 205 + 207 + 0
p 220 193 + 203 + 207 + 0
p 222 191 + 203 + 205 + 0
p 224 195 + 199 + 201 + 0
p 226 193 + 197 + 201 + 0
p 228 191 + 197 + 199 + 0
p 230 191 + 193 + 195 + 0
u  1 ~x9 1 ~x11 1 ~x26 1 ~x37 1 ~x45 >= 1 ;
u 1 ~x9 1 ~x11 1 ~x26 1 ~x37 1 ~x43 >= 1 ;
u 1 ~x9 1 ~x11 1 ~x26 1 ~x37 >= 1 ;
u 1 ~x9 1 ~x11 1 ~x26 1 ~x38 1 ~x42 >= 1 ;
u  1 ~x9 1 ~x11 1 ~x26 1 ~x38 1 ~x44 >= 1 ;
u 1 ~x9 1 ~x11 1 ~x26 1 ~x38 >= 1 ;
u 1 ~x9 1 ~x11 1 ~x26 >= 1 ;
u  1 ~x9 1 ~x11 1 ~x30 1 ~x33 1 ~x44 >= 1 ;
u 1 ~x9 1 ~x11 1 ~x30 1 ~x33 1 ~x47 >= 1 ;
u 1 ~x9 1 ~x11 1 ~x30 1 ~x33 >= 1 ;
u  1 ~x9 1 ~x11 1 ~x30 1 ~x32 1 ~x45 >= 1 ;
u 1 ~x9 1 ~x11 1 ~x30 1 ~x32 1 ~x48 >= 1 ;
u 1 ~x9 1 ~x11 1 ~x30 1 ~x32 >= 1 ;
u 1 ~x9 1 ~x11 1 ~x30 >= 1 ;
u 1 ~x9 1 ~x11 >= 1 ;
u  1 ~x9 1 ~x15 1 ~x27 1 ~x33 1 ~x44 >= 1 ;
u 1 ~x9 1 ~x15 1 ~x27 1 ~x33 1 ~x50 >= 1 ;
u 1 ~x9 1 ~x15 1 ~x27 1 ~x33 >= 1 ;
u 1 ~x9 1 ~x15 1 ~x27 1 ~x36 1 ~x48 >= 1 ;
u  1 ~x9 1 ~x15 1 ~x27 1 ~x36 1 ~x41 >= 1 ;
u 1 ~x9 1 ~x15 1 ~x27 1 ~x36 >= 1 ;
u 1 ~x9 1 ~x15 1 ~x27 >= 1 ;
u 1 ~x9 1 ~x15 1 ~x22 1 ~x40 1 ~x43 >= 1 ;
u  1 ~x9 1 ~x15 1 ~x22 1 ~x40 1 ~x41 >= 1 ;
u 1 ~x9 1 ~x15 1 ~x22 1 ~x40 >= 1 ;
u  1 ~x9 1 ~x15 1 ~x22 1 ~x38 1 ~x44 >= 1 ;
u 1 ~x9 1 ~x15 1 ~x22 1 ~x38 1 ~x46 >= 1 ;
u 1 ~x9 1 ~x15 1 ~x22 1 ~x38 >= 1 ;
u 1 ~x9 1 ~x15 1 ~x22 >= 1 ;
u 1 ~x9 1 ~x15 >= 1 ;
u  1 ~x9 1 ~x14 1 ~x23 1 ~x37 1 ~x45 >= 1 ;
u 1 ~x9 1 ~x14 1 ~x23 1 ~x37 1 ~x46 >= 1 ;
u 1 ~x9 1 ~x14 1 ~x23 1 ~x37 >= 1 ;
u 1 ~x9 1 ~x14 1 ~x23 1 ~x40 1 ~x42 >= 1 ;
u  1 ~x9 1 ~x14 1 ~x23 1 ~x40 1 ~x41 >= 1 ;
u 1 ~x9 1 ~x14 1 ~x23 1 ~x40 >= 1 ;
u 1 ~x9 1 ~x14 1 ~x23 >= 1 ;
u  1 ~x9 1 ~x14 1 ~x28 1 ~x32 1 ~x45 >= 1 ;
u 1 ~x9 1 ~x14 1 ~x28 1 ~x32 1 ~x50 >= 1 ;
u 1 ~x9 1 ~x14 1 ~x28 1 ~x32 >= 1 ;
u  1 ~x9 1 ~x14 1 ~x28 1 ~x36 1 ~x41 >= 1 ;
u 1 ~x9 1 ~x14 1 ~x28 1 ~x36 1 ~x47 >= 1 ;
u 1 ~x9 1 ~x14 1 ~x28 1 ~x36 >= 1 ;
u 1 ~x9 1 ~x14 1 ~x28 >= 1 ;
u 1 ~x9 1 ~x14 >= 1 ;
u 1 ~x9 >= 1 ;
u 1 ~x10 1 ~x12 1 ~x28 1 ~x36 1 ~x47 >= 1 ;
u  1 ~x10 1 ~x12 1 ~x28 1 ~x36 1 ~x41 >= 1 ;
u 1 ~x10 1 ~x12 1 ~x28 1 ~x36 >= 1 ;
u  1 ~x10 1 ~x12 1 ~x28 1 ~x34 1 ~x43 >= 1 ;
u 1 ~x10 1 ~x12 1 ~x28 1 ~x34 1 ~x49 >= 1 ;
u 1 ~x10 1 ~x12 1 ~x28 1 ~x34 >= 1 ;
u 1 ~x10 1 ~x12 1 ~x28 >= 1 ;
u 1 ~x10 1 ~x12 1 ~x25 1 ~x39 1 ~x44 >= 1 ;
u  1 ~x10 1 ~x12 1 ~x25 1 ~x39 1 ~x41 >= 1 ;
u 1 ~x10 1 ~x12 1 ~x25 1 ~x39 >= 1 ;
u  1 ~x10 1 ~x12 1 ~x25 1 ~x37 1 ~x43 >= 1 ;
u 1 ~x10 1 ~x12 1 ~x25 1 ~x37 1 ~x46 >= 1 ;
u 1 ~x10 1 ~x12 1 ~x25 1 ~x37 >= 1 ;
u 1 ~x10 1 ~x12 1 ~x25 >= 1 ;
u 1 ~x10 1 ~x12 >= 1 ;
u 1 ~x10 1 ~x11 1 ~x26 1 ~x37 1 ~x45 >= 1 ;
u  1 ~x10 1 ~x11 1 ~x26 1 ~x37 1 ~x43 >= 1 ;
u 1 ~x10 1 ~x11 1 ~x26 1 ~x37 >= 1 ;
u  1 ~x10 1 ~x11 1 ~x26 1 ~x38 1 ~x42 >= 1 ;
u 1 ~x10 1 ~x11 1 ~x26 1 ~x38 1 ~x44 >= 1 ;
u 1 ~x10 1 ~x11 1 ~x26 1 ~x38 >= 1 ;
u 1 ~x10 1 ~x11 1 ~x26 >= 1 ;
u  1 ~x10 1 ~x11 1 ~x29 1 ~x35 1 ~x42 >= 1 ;
u 1 ~x10 1 ~x11 1 ~x29 1 ~x35 1 ~x47 >= 1 ;
u 1 ~x10 1 ~x11 1 ~x29 1 ~x35 >= 1 ;
u  1 ~x10 1 ~x11 1 ~x29 1 ~x34 1 ~x43 >= 1 ;
u 1 ~x10 1 ~x11 1 ~x29 1 ~x34 1 ~x48 >= 1 ;
u 1 ~x10 1 ~x11 1 ~x29 1 ~x34 >= 1 ;
u 1 ~x10 1 ~x11 1 ~x29 >= 1 ;
u 1 ~x10 1 ~x11 >= 1 ;
u  1 ~x10 1 ~x13 1 ~x24 1 ~x38 1 ~x42 >= 1 ;
u 1 ~x10 1 ~x13 1 ~x24 1 ~x38 1 ~x46 >= 1 ;
u 1 ~x10 1 ~x13 1 ~x24 1 ~x38 >= 1 ;
u  1 ~x10 1 ~x13 1 ~x24 1 ~x39 1 ~x41 >= 1 ;
u 1 ~x10 1 ~x13 1 ~x24 1 ~x39 1 ~x45 >= 1 ;
u 1 ~x10 1 ~x13 1 ~x24 1 ~x39 >= 1 ;
u 1 ~x10 1 ~x13 1 ~x24 >= 1 ;
u 1 ~x10 1 ~x13 1 ~x27 1 ~x36 1 ~x48 >= 1 ;
u  1 ~x10 1 ~x13 1 ~x27 1 ~x36 1 ~x41 >= 1 ;
u 1 ~x10 1 ~x13 1 ~x27 1 ~x36 >= 1 ;
u  1 ~x10 1 ~x13 1 ~x27 1 ~x35 1 ~x42 >= 1 ;
u 1 ~x10 1 ~x13 1 ~x27 1 ~x35 1 ~x49 >= 1 ;
u 1 ~x10 1 ~x13 1 ~x27 1 ~x35 >= 1 ;
u 1 ~x10 1 ~x13 1 ~x27 >= 1 ;
u 1 ~x10 1 ~x13 >= 1 ;
u 1 ~x10 >= 1 ;
u 1 ~x4 1 ~x13 1 ~x27 1 ~x36 1 ~x41 >= 1 ;
u  1 ~x4 1 ~x13 1 ~x27 1 ~x36 1 ~x48 >= 1 ;
u 1 ~x4 1 ~x13 1 ~x27 1 ~x36 >= 1 ;
u 1 ~x4 1 ~x13 1 ~x27 1 ~x35 1 ~x42 >= 1 ;
u  1 ~x4 1 ~x13 1 ~x27 1 ~x35 1 ~x49 >= 1 ;
u 1 ~x4 1 ~x13 1 ~x27 1 ~x35 >= 1 ;
u 1 ~x4 1 ~x13 1 ~x27 >= 1 ;
u 1 ~x4 1 ~x13 1 ~x30 1 ~x31 1 ~x46 >= 1 ;
u  1 ~x4 1 ~x13 1 ~x30 1 ~x31 1 ~x49 >= 1 ;
u 1 ~x4 1 ~x13 1 ~x30 1 ~x31 >= 1 ;
u 1 ~x4 1 ~x13 1 ~x30 1 ~x32 1 ~x45 >= 1 ;
u  1 ~x4 1 ~x13 1 ~x30 1 ~x32 1 ~x48 >= 1 ;
u 1 ~x4 1 ~x13 1 ~x30 1 ~x32 >= 1 ;
u 1 ~x4 1 ~x13 1 ~x30 >= 1 ;
u 1 ~x4 1 ~x13 >= 1 ;
u  1 ~x4 1 ~x18 1 ~x22 1 ~x35 1 ~x49 >= 1 ;
u 1 ~x4 1 ~x18 1 ~x22 1 ~x35 1 ~x47 >= 1 ;
u 1 ~x4 1 ~x18 1 ~x22 1 ~x35 >= 1 ;
u 1 ~x4 1 ~x18 1 ~x22 1 ~x40 1 ~x41 >= 1 ;
u  1 ~x4 1 ~x18 1 ~x22 1 ~x40 1 ~x43 >= 1 ;
u 1 ~x4 1 ~x18 1 ~x22 1 ~x40 >= 1 ;
u 1 ~x4 1 ~x18 1 ~x22 >= 1 ;
u 1 ~x4 1 ~x18 1 ~x26 1 ~x31 1 ~x50 >= 1 ;
u  1 ~x4 1 ~x18 1 ~x26 1 ~x31 1 ~x49 >= 1 ;
u 1 ~x4 1 ~x18 1 ~x26 1 ~x31 >= 1 ;
u 1 ~x4 1 ~x18 1 ~x26 1 ~x37 1 ~x45 >= 1 ;
u  1 ~x4 1 ~x18 1 ~x26 1 ~x37 1 ~x43 >= 1 ;
u 1 ~x4 1 ~x18 1 ~x26 1 ~x37 >= 1 ;
u 1 ~x4 1 ~x18 1 ~x26 >= 1 ;
u 1 ~x4 1 ~x18 >= 1 ;
u  1 ~x4 1 ~x19 1 ~x21 1 ~x40 1 ~x43 >= 1 ;
u 1 ~x4 1 ~x19 1 ~x21 1 ~x40 1 ~x42 >= 1 ;
u 1 ~x4 1 ~x19 1 ~x21 1 ~x40 >= 1 ;
u  1 ~x4 1 ~x19 1 ~x21 1 ~x36 1 ~x48 >= 1 ;
u 1 ~x4 1 ~x19 1 ~x21 1 ~x36 1 ~x47 >= 1 ;
u 1 ~x4 1 ~x19 1 ~x21 1 ~x36 >= 1 ;
u 1 ~x4 1 ~x19 1 ~x21 >= 1 ;
u 1 ~x4 1 ~x19 1 ~x25 1 ~x37 1 ~x46 >= 1 ;
u  1 ~x4 1 ~x19 1 ~x25 1 ~x37 1 ~x43 >= 1 ;
u 1 ~x4 1 ~x19 1 ~x25 1 ~x37 >= 1 ;
u  1 ~x4 1 ~x19 1 ~x25 1 ~x32 1 ~x48 >= 1 ;
u 1 ~x4 1 ~x19 1 ~x25 1 ~x32 1 ~x50 >= 1 ;
u 1 ~x4 1 ~x19 1 ~x25 1 ~x32 >= 1 ;
u 1 ~x4 1 ~x19 1 ~x25 >= 1 ;
u 1 ~x4 1 ~x19 >= 1 ;
u 1 ~x4 >= 1 ;
u  1 ~x2 1 ~x15 1 ~x27 1 ~x33 1 ~x50 >= 1 ;
u 1 ~x2 1 ~x15 1 ~x27 1 ~x33 1 ~x44 >= 1 ;
u 1 ~x2 1 ~x15 1 ~x27 1 ~x33 >= 1 ;
u 1 ~x2 1 ~x15 1 ~x27 1 ~x36 1 ~x41 >= 1 ;
u  1 ~x2 1 ~x15 1 ~x27 1 ~x36 1 ~x48 >= 1 ;
u 1 ~x2 1 ~x15 1 ~x27 1 ~x36 >= 1 ;
u 1 ~x2 1 ~x15 1 ~x27 >= 1 ;
u 1 ~x2 1 ~x15 1 ~x29 1 ~x34 1 ~x43 >= 1 ;
u  1 ~x2 1 ~x15 1 ~x29 1 ~x34 1 ~x48 >= 1 ;
u 1 ~x2 1 ~x15 1 ~x29 1 ~x34 >= 1 ;
u 1 ~x2 1 ~x15 1 ~x29 1 ~x31 1 ~x46 >= 1 ;
u  1 ~x2 1 ~x15 1 ~x29 1 ~x31 1 ~x50 >= 1 ;
u 1 ~x2 1 ~x15 1 ~x29 1 ~x31 >= 1 ;
u 1 ~x2 1 ~x15 1 ~x29 >= 1 ;
u 1 ~x2 1 ~x15 >= 1 ;
u 1 ~x2 1 ~x18 1 ~x26 1 ~x37 1 ~x43 >= 1 ;
u  1 ~x2 1 ~x18 1 ~x26 1 ~x37 1 ~x45 >= 1 ;
u 1 ~x2 1 ~x18 1 ~x26 1 ~x37 >= 1 ;
u  1 ~x2 1 ~x18 1 ~x26 1 ~x31 1 ~x50 >= 1 ;
u 1 ~x2 1 ~x18 1 ~x26 1 ~x31 1 ~x49 >= 1 ;
u 1 ~x2 1 ~x18 1 ~x26 1 ~x31 >= 1 ;
u 1 ~x2 1 ~x18 1 ~x26 >= 1 ;
u  1 ~x2 1 ~x18 1 ~x24 1 ~x33 1 ~x50 >= 1 ;
u 1 ~x2 1 ~x18 1 ~x24 1 ~x33 1 ~x47 >= 1 ;
u 1 ~x2 1 ~x18 1 ~x24 1 ~x33 >= 1 ;
u 1 ~x2 1 ~x18 1 ~x24 1 ~x39 1 ~x41 >= 1 ;
u  1 ~x2 1 ~x18 1 ~x24 1 ~x39 1 ~x45 >= 1 ;
u 1 ~x2 1 ~x18 1 ~x24 1 ~x39 >= 1 ;
u 1 ~x2 1 ~x18 1 ~x24 >= 1 ;
u 1 ~x2 1 ~x18 >= 1 ;
u 1 ~x2 1 ~x20 1 ~x21 1 ~x36 1 ~x47 >= 1 ;
u  1 ~x2 1 ~x20 1 ~x21 1 ~x36 1 ~x48 >= 1 ;
u 1 ~x2 1 ~x20 1 ~x21 1 ~x36 >= 1 ;
u 1 ~x2 1 ~x20 1 ~x21 1 ~x39 1 ~x44 >= 1 ;
u  1 ~x2 1 ~x20 1 ~x21 1 ~x39 1 ~x45 >= 1 ;
u 1 ~x2 1 ~x20 1 ~x21 1 ~x39 >= 1 ;
u 1 ~x2 1 ~x20 1 ~x21 >= 1 ;
u 1 ~x2 1 ~x20 1 ~x23 1 ~x37 1 ~x46 >= 1 ;
u  1 ~x2 1 ~x20 1 ~x23 1 ~x37 1 ~x45 >= 1 ;
u 1 ~x2 1 ~x20 1 ~x23 1 ~x37 >= 1 ;
u 1 ~x2 1 ~x20 1 ~x23 1 ~x34 1 ~x49 >= 1 ;
u  1 ~x2 1 ~x20 1 ~x23 1 ~x34 1 ~x48 >= 1 ;
u 1 ~x2 1 ~x20 1 ~x23 1 ~x34 >= 1 ;
u 1 ~x2 1 ~x20 1 ~x23 >= 1 ;
u 1 ~x2 1 ~x20 >= 1 ;
u 1 ~x2 >= 1 ;
u  1 ~x8 1 ~x14 1 ~x29 1 ~x31 1 ~x46 >= 1 ;
u 1 ~x8 1 ~x14 1 ~x29 1 ~x31 1 ~x50 >= 1 ;
u 1 ~x8 1 ~x14 1 ~x29 1 ~x31 >= 1 ;
u 1 ~x8 1 ~x14 1 ~x29 1 ~x35 1 ~x47 >= 1 ;
u  1 ~x8 1 ~x14 1 ~x29 1 ~x35 1 ~x42 >= 1 ;
u 1 ~x8 1 ~x14 1 ~x29 1 ~x35 >= 1 ;
u 1 ~x8 1 ~x14 1 ~x29 >= 1 ;
u 1 ~x8 1 ~x14 1 ~x23 1 ~x40 1 ~x41 >= 1 ;
u  1 ~x8 1 ~x14 1 ~x23 1 ~x40 1 ~x42 >= 1 ;
u 1 ~x8 1 ~x14 1 ~x23 1 ~x40 >= 1 ;
u  1 ~x8 1 ~x14 1 ~x23 1 ~x37 1 ~x46 >= 1 ;
u 1 ~x8 1 ~x14 1 ~x23 1 ~x37 1 ~x45 >= 1 ;
u 1 ~x8 1 ~x14 1 ~x23 1 ~x37 >= 1 ;
u 1 ~x8 1 ~x14 1 ~x23 >= 1 ;
u 1 ~x8 1 ~x14 >= 1 ;
u  1 ~x8 1 ~x16 1 ~x27 1 ~x35 1 ~x42 >= 1 ;
u 1 ~x8 1 ~x16 1 ~x27 1 ~x35 1 ~x49 >= 1 ;
u 1 ~x8 1 ~x16 1 ~x27 1 ~x35 >= 1 ;
u  1 ~x8 1 ~x16 1 ~x27 1 ~x33 1 ~x44 >= 1 ;
u 1 ~x8 1 ~x16 1 ~x27 1 ~x33 1 ~x50 >= 1 ;
u 1 ~x8 1 ~x16 1 ~x27 1 ~x33 >= 1 ;
u 1 ~x8 1 ~x16 1 ~x27 >= 1 ;
u  1 ~x8 1 ~x16 1 ~x21 1 ~x40 1 ~x42 >= 1 ;
u 1 ~x8 1 ~x16 1 ~x21 1 ~x40 1 ~x43 >= 1 ;
u 1 ~x8 1 ~x16 1 ~x21 1 ~x40 >= 1 ;
u 1 ~x8 1 ~x16 1 ~x21 1 ~x39 1 ~x45 >= 1 ;
u  1 ~x8 1 ~x16 1 ~x21 1 ~x39 1 ~x44 >= 1 ;
u 1 ~x8 1 ~x16 1 ~x21 1 ~x39 >= 1 ;
u 1 ~x8 1 ~x16 1 ~x21 >= 1 ;
u 1 ~x8 1 ~x16 >= 1 ;
u  1 ~x8 1 ~x12 1 ~x30 1 ~x31 1 ~x46 >= 1 ;
u 1 ~x8 1 ~x12 1 ~x30 1 ~x31 1 ~x49 >= 1 ;
u 1 ~x8 1 ~x12 1 ~x30 1 ~x31 >= 1 ;
u 1 ~x8 1 ~x12 1 ~x30 1 ~x33 1 ~x47 >= 1 ;
u  1 ~x8 1 ~x12 1 ~x30 1 ~x33 1 ~x44 >= 1 ;
u 1 ~x8 1 ~x12 1 ~x30 1 ~x33 >= 1 ;
u 1 ~x8 1 ~x12 1 ~x30 >= 1 ;
u  1 ~x8 1 ~x12 1 ~x25 1 ~x37 1 ~x46 >= 1 ;
u 1 ~x8 1 ~x12 1 ~x25 1 ~x37 1 ~x43 >= 1 ;
u 1 ~x8 1 ~x12 1 ~x25 1 ~x37 >= 1 ;
u  1 ~x8 1 ~x12 1 ~x25 1 ~x39 1 ~x44 >= 1 ;
u 1 ~x8 1 ~x12 1 ~x25 1 ~x39 1 ~x41 >= 1 ;
u 1 ~x8 1 ~x12 1 ~x25 1 ~x39 >= 1 ;
u 1 ~x8 1 ~x12 1 ~x25 >= 1 ;
u 1 ~x8 1 ~x12 >= 1 ;
u 1 ~x8 >= 1 ;
u 1 ~x6 1 ~x17 1 ~x25 1 ~x32 1 ~x50 >= 1 ;
u  1 ~x6 1 ~x17 1 ~x25 1 ~x32 1 ~x48 >= 1 ;
u 1 ~x6 1 ~x17 1 ~x25 1 ~x32 >= 1 ;
u  1 ~x6 1 ~x17 1 ~x25 1 ~x39 1 ~x41 >= 1 ;
u 1 ~x6 1 ~x17 1 ~x25 1 ~x39 1 ~x44 >= 1 ;
u 1 ~x6 1 ~x17 1 ~x25 1 ~x39 >= 1 ;
u 1 ~x6 1 ~x17 1 ~x25 >= 1 ;
u  1 ~x6 1 ~x17 1 ~x23 1 ~x40 1 ~x41 >= 1 ;
u 1 ~x6 1 ~x17 1 ~x23 1 ~x40 1 ~x42 >= 1 ;
u 1 ~x6 1 ~x17 1 ~x23 1 ~x40 >= 1 ;
u 1 ~x6 1 ~x17 1 ~x23 1 ~x34 1 ~x49 >= 1 ;
u  1 ~x6 1 ~x17 1 ~x23 1 ~x34 1 ~x48 >= 1 ;
u 1 ~x6 1 ~x17 1 ~x23 1 ~x34 >= 1 ;
u 1 ~x6 1 ~x17 1 ~x23 >= 1 ;
u 1 ~x6 1 ~x17 >= 1 ;
u  1 ~x6 1 ~x11 1 ~x29 1 ~x35 1 ~x47 >= 1 ;
u 1 ~x6 1 ~x11 1 ~x29 1 ~x35 1 ~x42 >= 1 ;
u 1 ~x6 1 ~x11 1 ~x29 1 ~x35 >= 1 ;
u  1 ~x6 1 ~x11 1 ~x29 1 ~x34 1 ~x48 >= 1 ;
u 1 ~x6 1 ~x11 1 ~x29 1 ~x34 1 ~x43 >= 1 ;
u 1 ~x6 1 ~x11 1 ~x29 1 ~x34 >= 1 ;
u 1 ~x6 1 ~x11 1 ~x29 >= 1 ;
u  1 ~x6 1 ~x11 1 ~x30 1 ~x33 1 ~x47 >= 1 ;
u 1 ~x6 1 ~x11 1 ~x30 1 ~x33 1 ~x44 >= 1 ;
u 1 ~x6 1 ~x11 1 ~x30 1 ~x33 >= 1 ;
u 1 ~x6 1 ~x11 1 ~x30 1 ~x32 1 ~x45 >= 1 ;
u  1 ~x6 1 ~x11 1 ~x30 1 ~x32 1 ~x48 >= 1 ;
u 1 ~x6 1 ~x11 1 ~x30 1 ~x32 >= 1 ;
u 1 ~x6 1 ~x11 1 ~x30 >= 1 ;
u 1 ~x6 1 ~x11 >= 1 ;
u 1 ~x6 1 ~x18 1 ~x24 1 ~x39 1 ~x45 >= 1 ;
u  1 ~x6 1 ~x18 1 ~x24 1 ~x39 1 ~x41 >= 1 ;
u 1 ~x6 1 ~x18 1 ~x24 1 ~x39 >= 1 ;
u 1 ~x6 1 ~x18 1 ~x24 1 ~x33 1 ~x50 >= 1 ;
u  1 ~x6 1 ~x18 1 ~x24 1 ~x33 1 ~x47 >= 1 ;
u 1 ~x6 1 ~x18 1 ~x24 1 ~x33 >= 1 ;
u 1 ~x6 1 ~x18 1 ~x24 >= 1 ;
u 1 ~x6 1 ~x18 1 ~x22 1 ~x40 1 ~x43 >= 1 ;
u  1 ~x6 1 ~x18 1 ~x22 1 ~x40 1 ~x41 >= 1 ;
u 1 ~x6 1 ~x18 1 ~x22 1 ~x40 >= 1 ;
u 1 ~x6 1 ~x18 1 ~x22 1 ~x35 1 ~x49 >= 1 ;
u  1 ~x6 1 ~x18 1 ~x22 1 ~x35 1 ~x47 >= 1 ;
u 1 ~x6 1 ~x18 1 ~x22 1 ~x35 >= 1 ;
u 1 ~x6 1 ~x18 1 ~x22 >= 1 ;
u 1 ~x6 1 ~x18 >= 1 ;
u 1 ~x6 >= 1 ;
u  1 ~x5 1 ~x12 1 ~x30 1 ~x33 1 ~x47 >= 1 ;
u 1 ~x5 1 ~x12 1 ~x30 1 ~x33 1 ~x44 >= 1 ;
u 1 ~x5 1 ~x12 1 ~x30 1 ~x33 >= 1 ;
u  1 ~x5 1 ~x12 1 ~x30 1 ~x31 1 ~x49 >= 1 ;
u 1 ~x5 1 ~x12 1 ~x30 1 ~x31 1 ~x46 >= 1 ;
u 1 ~x5 1 ~x12 1 ~x30 1 ~x31 >= 1 ;
u 1 ~x5 1 ~x12 1 ~x30 >= 1 ;
u 1 ~x5 1 ~x12 1 ~x28 1 ~x34 1 ~x43 >= 1 ;
u  1 ~x5 1 ~x12 1 ~x28 1 ~x34 1 ~x49 >= 1 ;
u 1 ~x5 1 ~x12 1 ~x28 1 ~x34 >= 1 ;
u  1 ~x5 1 ~x12 1 ~x28 1 ~x36 1 ~x47 >= 1 ;
u 1 ~x5 1 ~x12 1 ~x28 1 ~x36 1 ~x41 >= 1 ;
u 1 ~x5 1 ~x12 1 ~x28 1 ~x36 >= 1 ;
u 1 ~x5 1 ~x12 1 ~x28 >= 1 ;
u 1 ~x5 1 ~x12 >= 1 ;
u 1 ~x5 1 ~x17 1 ~x23 1 ~x34 1 ~x48 >= 1 ;
u  1 ~x5 1 ~x17 1 ~x23 1 ~x34 1 ~x49 >= 1 ;
u 1 ~x5 1 ~x17 1 ~x23 1 ~x34 >= 1 ;
u  1 ~x5 1 ~x17 1 ~x23 1 ~x40 1 ~x42 >= 1 ;
u 1 ~x5 1 ~x17 1 ~x23 1 ~x40 1 ~x41 >= 1 ;
u 1 ~x5 1 ~x17 1 ~x23 1 ~x40 >= 1 ;
u 1 ~x5 1 ~x17 1 ~x23 >= 1 ;
u  1 ~x5 1 ~x17 1 ~x26 1 ~x38 1 ~x42 >= 1 ;
u 1 ~x5 1 ~x17 1 ~x26 1 ~x38 1 ~x44 >= 1 ;
u 1 ~x5 1 ~x17 1 ~x26 1 ~x38 >= 1 ;
u 1 ~x5 1 ~x17 1 ~x26 1 ~x31 1 ~x50 >= 1 ;
u  1 ~x5 1 ~x17 1 ~x26 1 ~x31 1 ~x49 >= 1 ;
u 1 ~x5 1 ~x17 1 ~x26 1 ~x31 >= 1 ;
u 1 ~x5 1 ~x17 1 ~x26 >= 1 ;
u 1 ~x5 1 ~x17 >= 1 ;
u 1 ~x5 1 ~x19 1 ~x24 1 ~x33 1 ~x50 >= 1 ;
u  1 ~x5 1 ~x19 1 ~x24 1 ~x33 1 ~x47 >= 1 ;
u 1 ~x5 1 ~x19 1 ~x24 1 ~x33 >= 1 ;
u 1 ~x5 1 ~x19 1 ~x24 1 ~x38 1 ~x46 >= 1 ;
u  1 ~x5 1 ~x19 1 ~x24 1 ~x38 1 ~x42 >= 1 ;
u 1 ~x5 1 ~x19 1 ~x24 1 ~x38 >= 1 ;
u 1 ~x5 1 ~x19 1 ~x24 >= 1 ;
u 1 ~x5 1 ~x19 1 ~x21 1 ~x40 1 ~x43 >= 1 ;
u  1 ~x5 1 ~x19 1 ~x21 1 ~x40 1 ~x42 >= 1 ;
u 1 ~x5 1 ~x19 1 ~x21 1 ~x40 >= 1 ;
u  1 ~x5 1 ~x19 1 ~x21 1 ~x36 1 ~x47 >= 1 ;
u 1 ~x5 1 ~x19 1 ~x21 1 ~x36 1 ~x48 >= 1 ;
u 1 ~x5 1 ~x19 1 ~x21 1 ~x36 >= 1 ;
u 1 ~x5 1 ~x19 1 ~x21 >= 1 ;
u 1 ~x5 1 ~x19 >= 1 ;
u 1 ~x5 >= 1 ;
u  1 ~x1 1 ~x19 1 ~x25 1 ~x32 1 ~x50 >= 1 ;
u 1 ~x1 1 ~x19 1 ~x25 1 ~x32 1 ~x48 >= 1 ;
u 1 ~x1 1 ~x19 1 ~x25 1 ~x32 >= 1 ;
u 1 ~x1 1 ~x19 1 ~x25 1 ~x37 1 ~x43 >= 1 ;
u  1 ~x1 1 ~x19 1 ~x25 1 ~x37 1 ~x46 >= 1 ;
u 1 ~x1 1 ~x19 1 ~x25 1 ~x37 >= 1 ;
u 1 ~x1 1 ~x19 1 ~x25 >= 1 ;
u  1 ~x1 1 ~x19 1 ~x24 1 ~x33 1 ~x50 >= 1 ;
u 1 ~x1 1 ~x19 1 ~x24 1 ~x33 1 ~x47 >= 1 ;
u 1 ~x1 1 ~x19 1 ~x24 1 ~x33 >= 1 ;
u  1 ~x1 1 ~x19 1 ~x24 1 ~x38 1 ~x46 >= 1 ;
u 1 ~x1 1 ~x19 1 ~x24 1 ~x38 1 ~x42 >= 1 ;
u 1 ~x1 1 ~x19 1 ~x24 1 ~x38 >= 1 ;
u 1 ~x1 1 ~x19 1 ~x24 >= 1 ;
u 1 ~x1 1 ~x19 >= 1 ;
u 1 ~x1 1 ~x20 1 ~x22 1 ~x35 1 ~x47 >= 1 ;
u  1 ~x1 1 ~x20 1 ~x22 1 ~x35 1 ~x49 >= 1 ;
u 1 ~x1 1 ~x20 1 ~x22 1 ~x35 >= 1 ;
u  1 ~x1 1 ~x20 1 ~x22 1 ~x38 1 ~x46 >= 1 ;
u 1 ~x1 1 ~x20 1 ~x22 1 ~x38 1 ~x44 >= 1 ;
u 1 ~x1 1 ~x20 1 ~x22 1 ~x38 >= 1 ;
u 1 ~x1 1 ~x20 1 ~x22 >= 1 ;
u  1 ~x1 1 ~x20 1 ~x23 1 ~x37 1 ~x46 >= 1 ;
u 1 ~x1 1 ~x20 1 ~x23 1 ~x37 1 ~x45 >= 1 ;
u 1 ~x1 1 ~x20 1 ~x23 1 ~x37 >= 1 ;
u 1 ~x1 1 ~x20 1 ~x23 1 ~x34 1 ~x48 >= 1 ;
u  1 ~x1 1 ~x20 1 ~x23 1 ~x34 1 ~x49 >= 1 ;
u 1 ~x1 1 ~x20 1 ~x23 1 ~x34 >= 1 ;
u 1 ~x1 1 ~x20 1 ~x23 >= 1 ;
u 1 ~x1 1 ~x20 >= 1 ;
u 1 ~x1 1 ~x16 1 ~x27 1 ~x35 1 ~x42 >= 1 ;
u  1 ~x1 1 ~x16 1 ~x27 1 ~x35 1 ~x49 >= 1 ;
u 1 ~x1 1 ~x16 1 ~x27 1 ~x35 >= 1 ;
u  1 ~x1 1 ~x16 1 ~x27 1 ~x33 1 ~x50 >= 1 ;
u 1 ~x1 1 ~x16 1 ~x27 1 ~x33 1 ~x44 >= 1 ;
u 1 ~x1 1 ~x16 1 ~x27 1 ~x33 >= 1 ;
u 1 ~x1 1 ~x16 1 ~x27 >= 1 ;
u 1 ~x1 1 ~x16 1 ~x28 1 ~x34 1 ~x43 >= 1 ;
u  1 ~x1 1 ~x16 1 ~x28 1 ~x34 1 ~x49 >= 1 ;
u 1 ~x1 1 ~x16 1 ~x28 1 ~x34 >= 1 ;
u 1 ~x1 1 ~x16 1 ~x28 1 ~x32 1 ~x45 >= 1 ;
u  1 ~x1 1 ~x16 1 ~x28 1 ~x32 1 ~x50 >= 1 ;
u 1 ~x1 1 ~x16 1 ~x28 1 ~x32 >= 1 ;
u 1 ~x1 1 ~x16 1 ~x28 >= 1 ;
u 1 ~x1 1 ~x16 >= 1 ;
u 1 ~x1 >= 1 ;
u  1 ~x3 1 ~x20 1 ~x21 1 ~x39 1 ~x44 >= 1 ;
u 1 ~x3 1 ~x20 1 ~x21 1 ~x39 1 ~x45 >= 1 ;
u 1 ~x3 1 ~x20 1 ~x21 1 ~x39 >= 1 ;
u 1 ~x3 1 ~x20 1 ~x21 1 ~x36 1 ~x48 >= 1 ;
u  1 ~x3 1 ~x20 1 ~x21 1 ~x36 1 ~x47 >= 1 ;
u 1 ~x3 1 ~x20 1 ~x21 1 ~x36 >= 1 ;
u 1 ~x3 1 ~x20 1 ~x21 >= 1 ;
u 1 ~x3 1 ~x20 1 ~x22 1 ~x35 1 ~x49 >= 1 ;
u  1 ~x3 1 ~x20 1 ~x22 1 ~x35 1 ~x47 >= 1 ;
u 1 ~x3 1 ~x20 1 ~x22 1 ~x35 >= 1 ;
u  1 ~x3 1 ~x20 1 ~x22 1 ~x38 1 ~x44 >= 1 ;
u 1 ~x3 1 ~x20 1 ~x22 1 ~x38 1 ~x46 >= 1 ;
u 1 ~x3 1 ~x20 1 ~x22 1 ~x38 >= 1 ;
u 1 ~x3 1 ~x20 1 ~x22 >= 1 ;
u 1 ~x3 1 ~x20 >= 1 ;
u 1 ~x3 1 ~x17 1 ~x26 1 ~x31 1 ~x49 >= 1 ;
u  1 ~x3 1 ~x17 1 ~x26 1 ~x31 1 ~x50 >= 1 ;
u 1 ~x3 1 ~x17 1 ~x26 1 ~x31 >= 1 ;
u 1 ~x3 1 ~x17 1 ~x26 1 ~x38 1 ~x42 >= 1 ;
u  1 ~x3 1 ~x17 1 ~x26 1 ~x38 1 ~x44 >= 1 ;
u 1 ~x3 1 ~x17 1 ~x26 1 ~x38 >= 1 ;
u 1 ~x3 1 ~x17 1 ~x26 >= 1 ;
u  1 ~x3 1 ~x17 1 ~x25 1 ~x32 1 ~x50 >= 1 ;
u 1 ~x3 1 ~x17 1 ~x25 1 ~x32 1 ~x48 >= 1 ;
u 1 ~x3 1 ~x17 1 ~x25 1 ~x32 >= 1 ;
u  1 ~x3 1 ~x17 1 ~x25 1 ~x39 1 ~x44 >= 1 ;
u 1 ~x3 1 ~x17 1 ~x25 1 ~x39 1 ~x41 >= 1 ;
u 1 ~x3 1 ~x17 1 ~x25 1 ~x39 >= 1 ;
u 1 ~x3 1 ~x17 1 ~x25 >= 1 ;
u 1 ~x3 1 ~x17 >= 1 ;
u 1 ~x3 1 ~x14 1 ~x29 1 ~x35 1 ~x42 >= 1 ;
u  1 ~x3 1 ~x14 1 ~x29 1 ~x35 1 ~x47 >= 1 ;
u 1 ~x3 1 ~x14 1 ~x29 1 ~x35 >= 1 ;
u  1 ~x3 1 ~x14 1 ~x29 1 ~x31 1 ~x50 >= 1 ;
u 1 ~x3 1 ~x14 1 ~x29 1 ~x31 1 ~x46 >= 1 ;
u 1 ~x3 1 ~x14 1 ~x29 1 ~x31 >= 1 ;
u 1 ~x3 1 ~x14 1 ~x29 >= 1 ;
u  1 ~x3 1 ~x14 1 ~x28 1 ~x36 1 ~x47 >= 1 ;
u 1 ~x3 1 ~x14 1 ~x28 1 ~x36 1 ~x41 >= 1 ;
u 1 ~x3 1 ~x14 1 ~x28 1 ~x36 >= 1 ;
u  1 ~x3 1 ~x14 1 ~x28 1 ~x32 1 ~x50 >= 1 ;
u 1 ~x3 1 ~x14 1 ~x28 1 ~x32 1 ~x45 >= 1 ;
u 1 ~x3 1 ~x14 1 ~x28 1 ~x32 >= 1 ;
u 1 ~x3 1 ~x14 1 ~x28 >= 1 ;
u 1 ~x3 1 ~x14 >= 1 ;
u 1 ~x3 >= 1 ;
u  1 ~x7 1 ~x15 1 ~x22 1 ~x40 1 ~x43 >= 1 ;
u 1 ~x7 1 ~x15 1 ~x22 1 ~x40 1 ~x41 >= 1 ;
u 1 ~x7 1 ~x15 1 ~x22 1 ~x40 >= 1 ;
u 1 ~x7 1 ~x15 1 ~x22 1 ~x38 1 ~x44 >= 1 ;
u  1 ~x7 1 ~x15 1 ~x22 1 ~x38 1 ~x46 >= 1 ;
u 1 ~x7 1 ~x15 1 ~x22 1 ~x38 >= 1 ;
u 1 ~x7 1 ~x15 1 ~x22 >= 1 ;
u  1 ~x7 1 ~x15 1 ~x29 1 ~x31 1 ~x46 >= 1 ;
u 1 ~x7 1 ~x15 1 ~x29 1 ~x31 1 ~x50 >= 1 ;
u 1 ~x7 1 ~x15 1 ~x29 1 ~x31 >= 1 ;
u  1 ~x7 1 ~x15 1 ~x29 1 ~x34 1 ~x43 >= 1 ;
u 1 ~x7 1 ~x15 1 ~x29 1 ~x34 1 ~x48 >= 1 ;
u 1 ~x7 1 ~x15 1 ~x29 1 ~x34 >= 1 ;
u 1 ~x7 1 ~x15 1 ~x29 >= 1 ;
u 1 ~x7 1 ~x15 >= 1 ;
u  1 ~x7 1 ~x16 1 ~x28 1 ~x34 1 ~x43 >= 1 ;
u 1 ~x7 1 ~x16 1 ~x28 1 ~x34 1 ~x49 >= 1 ;
u 1 ~x7 1 ~x16 1 ~x28 1 ~x34 >= 1 ;
u  1 ~x7 1 ~x16 1 ~x28 1 ~x32 1 ~x45 >= 1 ;
u 1 ~x7 1 ~x16 1 ~x28 1 ~x32 1 ~x50 >= 1 ;
u 1 ~x7 1 ~x16 1 ~x28 1 ~x32 >= 1 ;
u 1 ~x7 1 ~x16 1 ~x28 >= 1 ;
u  1 ~x7 1 ~x16 1 ~x21 1 ~x39 1 ~x45 >= 1 ;
u 1 ~x7 1 ~x16 1 ~x21 1 ~x39 1 ~x44 >= 1 ;
u 1 ~x7 1 ~x16 1 ~x21 1 ~x39 >= 1 ;
u 1 ~x7 1 ~x16 1 ~x21 1 ~x40 1 ~x42 >= 1 ;
u  1 ~x7 1 ~x16 1 ~x21 1 ~x40 1 ~x43 >= 1 ;
u 1 ~x7 1 ~x16 1 ~x21 1 ~x40 >= 1 ;
u 1 ~x7 1 ~x16 1 ~x21 >= 1 ;
u 1 ~x7 1 ~x16 >= 1 ;
u 1 ~x7 1 ~x13 1 ~x30 1 ~x32 1 ~x48 >= 1 ;
u  1 ~x7 1 ~x13 1 ~x30 1 ~x32 1 ~x45 >= 1 ;
u 1 ~x7 1 ~x13 1 ~x30 1 ~x32 >= 1 ;
u 1 ~x7 1 ~x13 1 ~x30 1 ~x31 1 ~x49 >= 1 ;
u  1 ~x7 1 ~x13 1 ~x30 1 ~x31 1 ~x46 >= 1 ;
u 1 ~x7 1 ~x13 1 ~x30 1 ~x31 >= 1 ;
u 1 ~x7 1 ~x13 1 ~x30 >= 1 ;
u  1 ~x7 1 ~x13 1 ~x24 1 ~x38 1 ~x46 >= 1 ;
u 1 ~x7 1 ~x13 1 ~x24 1 ~x38 1 ~x42 >= 1 ;
u 1 ~x7 1 ~x13 1 ~x24 1 ~x38 >= 1 ;
u 1 ~x7 1 ~x13 1 ~x24 1 ~x39 1 ~x41 >= 1 ;
u  1 ~x7 1 ~x13 1 ~x24 1 ~x39 1 ~x45 >= 1 ;
u 1 ~x7 1 ~x13 1 ~x24 1 ~x39 >= 1 ;
u 1 ~x7 1 ~x13 1 ~x24 >= 1 ;
u 1 ~x7 1 ~x13 >= 1 ;
u 1 ~x7 >= 1 ;
u >= 1 ;
c 743 0

* no of proof steps: 2531
* no of short proof steps: 743
* % of proof steps kept: 0.2935598577637297
